(declare-fun a_0 () Int)
(declare-fun b_0 () Int)
(declare-fun max_0 () Int)
(declare-fun return () Int)
(assert (and (=> (> a_0 b_0) (= max_0 a_0)) (=> (not (> a_0 b_0)) (= max_0 b_0))))
(assert (= return max_0))
(assert (not (= return a_0)))
(check-sat)
(get-model)